c defined variables: 33 34 35 36 37 38 39 40 41 42 43 44 45 46 47 48 49 50 51 52 53 54 55 56 57 58 59 60 61 62 63 64 65 66 67 68 69 70 71 72 73 74 75 76 77 78 79 80 81 82 83 84 85 86 87 88 89 90 91 92 93 94 95 96 97 98 99 100 101 102 103 104 105 106 107 108 109 110 111 112 113 114 115 116 117 118 119 120 121 122 123 124 125 126 127 128 129 130 131 132 133 134 135 136 137 138 139 140 141 142 143 144 145 146 147 148 149 150 151 152 153 154 155 156 157 158 159 160 161 162 163 164 165 166 167 205 206 207 208 209 210 211 212 213 214 215 216 217 218 219 220 221 222 223 224 225 226 227 228 229 230 231 232 233 234 235 236 237 238 239 240 241 242 243 244 245 246 247 248 249 250 252 253 254 255 257 258 259 260 264 265 266 267 268 269 270 271 272 274 275 276 277 278 279 280 281 282 283 284 285 286 287 288 289 290 291 292 293 294 295 296 297 298 300 301 302 303 304 305 306 307 308 309 310 311 312 313 314 315 316 317 
p cnf 1392 2104
a 1 2 3 4 5 6 7 8 9 10 11 12 13 14 15 16 17 18 19 20 21 22 23 24 25 26 27 28 29 30 31 32 176 177 178 179 180 181 182 183 184 185 186 187 188 189 190 191 192 193 194 195 196 197 198 199 200 201 202 0
e 33 34 35 36 37 38 39 40 41 42 43 44 45 46 47 48 49 50 51 52 53 54 55 56 57 58 59 60 61 62 63 64 65 66 67 68 69 70 71 72 73 74 75 76 77 78 79 80 81 82 83 84 85 86 87 88 89 90 91 92 93 94 95 96 97 98 99 100 101 102 103 104 105 106 107 108 109 110 111 112 113 114 115 116 117 118 119 120 121 122 123 124 125 126 127 128 129 130 131 132 133 134 135 136 137 138 139 140 141 142 143 144 145 146 147 148 149 150 151 152 153 154 155 156 157 158 159 160 161 162 163 164 165 166 167 205 206 207 208 209 210 211 212 213 214 215 216 217 218 219 220 221 222 223 224 225 226 227 228 229 230 231 232 233 234 235 236 237 238 239 240 241 242 243 244 245 246 247 248 249 250 252 253 254 255 257 258 259 260 264 265 266 267 268 269 270 271 272 274 275 276 277 278 279 280 281 282 283 284 285 286 287 288 289 290 291 292 293 294 295 296 297 298 300 301 302 303 304 305 306 307 308 309 310 311 312 313 314 315 316 317 1119 1120 1121 1122 1123 1124 1125 1126 1127 1128 1129 1130 1131 1132 1133 1134 1135 1136 1137 1138 1139 1140 1141 1142 1143 1144 1145 1146 1147 1148 1149 1150 1151 1152 1153 1154 1155 1156 1157 1158 1159 1160 1161 1162 1163 1164 1165 1166 1167 1168 1169 1170 1171 1172 1173 1174 1175 1176 1177 1178 1179 1180 1181 1182 1183 1184 1185 1186 1187 1188 1189 1190 1191 1192 1193 1194 1195 1196 1197 1198 1199 1200 1201 1202 1203 1204 1205 1206 1207 1208 1209 1210 1211 1212 1213 1214 1215 1216 1217 1218 1219 1220 1221 1222 1223 1224 1225 1226 1227 1228 1229 1230 1231 1232 1233 1234 1235 1236 1237 1238 1239 1240 1241 1242 1243 1244 1245 1246 1247 1248 1249 1250 1251 1252 1253 1254 1255 1256 1257 1258 1259 1260 1261 1262 1263 1264 1265 1266 1267 1268 1269 1270 1271 1272 1273 1274 1275 1276 1277 1278 1279 1280 1281 1282 1283 1284 1285 1286 1287 1288 1289 1290 1291 1292 1293 1294 1295 1296 1297 1298 1299 1300 1301 1302 1303 1304 1305 1306 1307 1308 1309 1310 1311 1312 1313 1314 1315 1316 1317 1318 1319 1320 1321 1322 1323 1324 1325 1326 1327 1328 1329 1330 1331 1332 1333 1334 1335 1336 1337 1338 1339 1340 1341 1342 1343 1344 1345 1346 1347 1348 1349 1350 1351 1352 1353 1354 1355 1356 1357 1358 1359 1360 1361 1362 1363 1364 1365 1366 1367 1368 1369 1370 1371 1372 1373 1374 1375 1376 1377 1378 1379 1380 1381 1382 1383 1384 1385 1386 1387 1388 1389 1390 1391 1392 0
d 168 182 183 184 185 186 187 188 189 190 191 0
d 169 182 183 184 185 186 187 188 189 190 191 0
d 170 180 181 0
d 171 176 177 0
d 172 178 179 0
d 173 192 193 194 195 196 197 198 199 200 201 202 0
d 174 192 193 194 195 196 197 198 199 200 201 202 0
d 175 192 193 194 195 196 197 198 199 200 201 202 0
d 203 1 2 3 4 5 6 7 8 9 10 11 12 13 14 15 16 17 18 19 20 21 22 23 24 25 26 27 28 29 30 31 32 176 177 178 179 180 181 182 183 184 185 186 187 188 189 190 191 192 193 194 195 196 197 198 199 200 201 202 0
d 204 1 2 3 4 5 6 7 8 9 10 11 12 13 14 15 16 17 18 19 20 21 22 23 24 25 26 27 28 29 30 31 32 176 177 178 179 180 181 182 183 184 185 186 187 188 189 190 191 192 193 194 195 196 197 198 199 200 201 202 0
d 251 1 2 3 4 5 6 7 8 9 10 11 12 13 14 15 16 17 18 19 20 21 22 23 24 25 26 27 28 29 30 31 32 176 177 178 179 180 181 182 183 184 185 186 187 188 189 190 191 192 193 194 195 196 197 198 199 200 201 202 0
d 256 1 2 3 4 5 6 7 8 9 10 11 12 13 14 15 16 17 18 19 20 21 22 23 24 25 26 27 28 29 30 31 32 176 177 178 179 180 181 182 183 184 185 186 187 188 189 190 191 192 193 194 195 196 197 198 199 200 201 202 0
d 261 1 2 3 4 5 6 7 8 9 10 11 12 13 14 15 16 17 18 19 20 21 22 23 24 25 26 27 28 29 30 31 32 176 177 178 179 180 181 182 183 184 185 186 187 188 189 190 191 192 193 194 195 196 197 198 199 200 201 202 0
d 262 1 2 3 4 5 6 7 8 9 10 11 12 13 14 15 16 17 18 19 20 21 22 23 24 25 26 27 28 29 30 31 32 176 177 178 179 180 181 182 183 184 185 186 187 188 189 190 191 192 193 194 195 196 197 198 199 200 201 202 0
d 263 1 2 3 4 5 6 7 8 9 10 11 12 13 14 15 16 17 18 19 20 21 22 23 24 25 26 27 28 29 30 31 32 176 177 178 179 180 181 182 183 184 185 186 187 188 189 190 191 192 193 194 195 196 197 198 199 200 201 202 0
d 273 1 2 3 4 5 6 7 8 9 10 11 12 13 14 15 16 17 18 19 20 21 22 23 24 25 26 27 28 29 30 31 32 176 177 178 179 180 181 182 183 184 185 186 187 188 189 190 191 192 193 194 195 196 197 198 199 200 201 202 0
d 299 1 2 3 4 5 6 7 8 9 10 11 12 13 14 15 16 17 18 19 20 21 22 23 24 25 26 27 28 29 30 31 32 176 177 178 179 180 181 182 183 184 185 186 187 188 189 190 191 192 193 194 195 196 197 198 199 200 201 202 0
1119 -33 0
-1119 33 0
1120 -34 0
-1120 34 0
-1121 -35 0
1121 35 0
1122 -36 0
-1122 36 0
1123 -37 0
-1123 37 0
-1124 -38 0
1124 38 0
1125 -39 0
-1125 39 0
1126 -40 0
-1126 40 0
-1127 -41 0
1127 41 0
-12 -42 0
12 42 0
-1128 -43 0
1128 43 0
-11 -44 0
11 44 0
-1129 -45 0
1129 45 0
-10 -46 0
10 46 0
-1130 -47 0
1130 47 0
-9 -48 0
9 48 0
-1131 -49 0
1131 49 0
-49 -50 0
49 50 0
1132 -51 0
-1132 51 0
1134 -52 0
-1134 52 0
1136 -53 0
-1136 53 0
-1139 -54 0
1139 54 0
1140 -55 0
-1140 55 0
1141 -56 0
-1141 56 0
-1142 -57 0
1142 57 0
1143 -58 0
-1143 58 0
1144 -59 0
-1144 59 0
1145 -60 0
-1145 60 0
1146 -61 0
-1146 61 0
-1147 -62 0
1147 62 0
1148 -63 0
-1148 63 0
1149 -64 0
-1149 64 0
-1150 -65 0
1150 65 0
1151 -66 0
-1151 66 0
1152 -67 0
-1152 67 0
-1153 -68 0
1153 68 0
1154 -69 0
-1154 69 0
1155 -70 0
-1155 70 0
-1156 -71 0
1156 71 0
-8 -72 0
8 72 0
-1157 -73 0
1157 73 0
-7 -74 0
7 74 0
-1158 -75 0
1158 75 0
-6 -76 0
6 76 0
-1159 -77 0
1159 77 0
-5 -78 0
5 78 0
-1160 -79 0
1160 79 0
-79 -80 0
79 80 0
1161 -81 0
-1161 81 0
1163 -82 0
-1163 82 0
1165 -83 0
-1165 83 0
-1168 -84 0
1168 84 0
1169 -85 0
-1169 85 0
1170 -86 0
-1170 86 0
-1171 -87 0
1171 87 0
1172 -88 0
-1172 88 0
1173 -89 0
-1173 89 0
1174 -90 0
-1174 90 0
1175 -91 0
-1175 91 0
-1176 -92 0
1176 92 0
1177 -93 0
-1177 93 0
1178 -94 0
-1178 94 0
-1179 -95 0
1179 95 0
1180 -96 0
-1180 96 0
1181 -97 0
-1181 97 0
-1182 -98 0
1182 98 0
1183 -99 0
-1183 99 0
1184 -100 0
-1184 100 0
-1185 -101 0
1185 101 0
-4 -102 0
4 102 0
-1186 -103 0
1186 103 0
-3 -104 0
3 104 0
-1187 -105 0
1187 105 0
-2 -106 0
2 106 0
-1188 -107 0
1188 107 0
-1 -108 0
1 108 0
-1189 -109 0
1189 109 0
-109 -110 0
109 110 0
1190 -111 0
-1190 111 0
1192 -112 0
-1192 112 0
1194 -113 0
-1194 113 0
-1197 -114 0
1197 114 0
1198 -115 0
-1198 115 0
1199 -116 0
-1199 116 0
-1200 -117 0
1200 117 0
1201 -118 0
-1201 118 0
1202 -119 0
-1202 119 0
1203 -120 0
-1203 120 0
1204 -121 0
-1204 121 0
-1205 -122 0
1205 122 0
1206 -123 0
-1206 123 0
1207 -124 0
-1207 124 0
-1208 -125 0
1208 125 0
1209 -126 0
-1209 126 0
1210 -127 0
-1210 127 0
-1211 -128 0
1211 128 0
1212 -129 0
-1212 129 0
1213 -130 0
-1213 130 0
-1214 -131 0
1214 131 0
-16 -132 0
16 132 0
-1215 -133 0
1215 133 0
-15 -134 0
15 134 0
-1216 -135 0
1216 135 0
-14 -136 0
14 136 0
-1217 -137 0
1217 137 0
-13 -138 0
13 138 0
-1218 -139 0
1218 139 0
-139 -140 0
139 140 0
1219 -141 0
-1219 141 0
1221 -142 0
-1221 142 0
1223 -143 0
-1223 143 0
-1226 -144 0
1226 144 0
1227 -145 0
-1227 145 0
1228 -146 0
-1228 146 0
-1229 -147 0
1229 147 0
1230 -148 0
-1230 148 0
1231 -149 0
-1231 149 0
-144 -150 0
144 150 0
-1232 -151 0
1232 151 0
-54 -152 0
54 152 0
-1233 -153 0
1233 153 0
-84 -154 0
84 154 0
-1234 -155 0
1234 155 0
-114 -156 0
114 156 0
-1235 -157 0
1235 157 0
-157 -158 0
157 158 0
1236 -159 0
-1236 159 0
1238 -160 0
-1238 160 0
1240 -161 0
-1240 161 0
-1243 -162 0
1243 162 0
1244 -163 0
-1244 163 0
1245 -164 0
-1245 164 0
-1246 -165 0
1246 165 0
1247 -166 0
-1247 166 0
1248 -167 0
-1248 167 0
-1249 -205 0
1249 205 0
1148 -206 0
-1148 206 0
1149 -207 0
-1149 207 0
-1250 -208 0
1250 208 0
1151 -209 0
-1151 209 0
1152 -210 0
-1152 210 0
-1251 -211 0
1251 211 0
1154 -212 0
-1154 212 0
1155 -213 0
-1155 213 0
-1252 -214 0
1252 214 0
-8 -215 0
8 215 0
-1253 -216 0
1253 216 0
-7 -217 0
7 217 0
-1254 -218 0
1254 218 0
-6 -219 0
6 219 0
-1255 -220 0
1255 220 0
-5 -221 0
5 221 0
-1256 -222 0
1256 222 0
-222 -223 0
222 223 0
1257 -224 0
-1257 224 0
1259 -225 0
-1259 225 0
1261 -226 0
-1261 226 0
-1264 -227 0
1264 227 0
1169 -228 0
-1169 228 0
1170 -229 0
-1170 229 0
-1265 -230 0
1265 230 0
1266 -231 0
-1266 231 0
1267 -232 0
-1267 232 0
1268 -233 0
-1268 233 0
1269 -234 0
-1269 234 0
-1270 -235 0
1270 235 0
1180 -236 0
-1180 236 0
1181 -237 0
-1181 237 0
-1271 -238 0
1271 238 0
1183 -239 0
-1183 239 0
1184 -240 0
-1184 240 0
-1272 -241 0
1272 241 0
-3 -242 0
3 242 0
-1273 -243 0
1273 243 0
-2 -244 0
2 244 0
-1274 -245 0
1274 245 0
-1 -246 0
1 246 0
-1275 -247 0
1275 247 0
-247 -248 0
247 248 0
1276 -249 0
-1276 249 0
1278 -250 0
-1278 250 0
-1281 -252 0
1281 252 0
1198 -253 0
-1198 253 0
1199 -254 0
-1199 254 0
-1282 -255 0
1282 255 0
1283 -257 0
-1283 257 0
1284 -258 0
-1284 258 0
1285 -259 0
-1285 259 0
-1286 -260 0
1286 260 0
-1287 -264 0
1287 264 0
-1288 -265 0
1288 265 0
-252 -266 0
252 266 0
-1289 -267 0
1289 267 0
-267 -268 0
267 268 0
1290 -269 0
-1290 269 0
1292 -270 0
-1292 270 0
1294 -271 0
-1294 271 0
-1297 -272 0
1297 272 0
1298 -274 0
-1298 274 0
1125 -275 0
-1125 275 0
1126 -276 0
-1126 276 0
-1299 -277 0
1299 277 0
1206 -278 0
-1206 278 0
1207 -279 0
-1207 279 0
-1300 -280 0
1300 280 0
1209 -281 0
-1209 281 0
1210 -282 0
-1210 282 0
-1301 -283 0
1301 283 0
1212 -284 0
-1212 284 0
1213 -285 0
-1213 285 0
-1302 -286 0
1302 286 0
1305 -287 0
-1305 287 0
1308 -288 0
-1308 288 0
1311 -289 0
-1311 289 0
1313 -290 0
-1313 290 0
1316 -291 0
-1316 291 0
1319 -292 0
-1319 292 0
1322 -293 0
-1322 293 0
1325 -294 0
-1325 294 0
1328 -295 0
-1328 295 0
1331 -296 0
-1331 296 0
1334 -297 0
-1334 297 0
1337 -298 0
-1337 298 0
-1341 -300 0
1341 300 0
1344 -301 0
-1344 301 0
1347 -302 0
-1347 302 0
1350 -303 0
-1350 303 0
1353 -304 0
-1353 304 0
1356 -305 0
-1356 305 0
1359 -306 0
-1359 306 0
1362 -307 0
-1362 307 0
1365 -308 0
-1365 308 0
1368 -309 0
-1368 309 0
1371 -310 0
-1371 310 0
1374 -311 0
-1374 311 0
1377 -312 0
-1377 312 0
1380 -313 0
-1380 313 0
1383 -314 0
-1383 314 0
1386 -315 0
-1386 315 0
1389 -316 0
-1389 316 0
1392 -317 0
-1392 317 0
-33 -11 0
-33 27 0
11 -27 33 0
-34 11 0
-34 -27 0
-11 27 34 0
-33 35 0
-34 35 0
-35 33 34 0
-36 -10 0
-36 26 0
10 -26 36 0
-37 10 0
-37 -26 0
-10 26 37 0
-36 38 0
-37 38 0
-38 36 37 0
-39 -9 0
-39 25 0
9 -25 39 0
-40 9 0
-40 -25 0
-9 25 40 0
-39 41 0
-40 41 0
-41 39 40 0
-12 -42 0
12 42 0
-42 43 0
-28 43 0
-43 42 28 0
-11 -44 0
11 44 0
-44 45 0
-27 45 0
-45 44 27 0
-10 -46 0
10 46 0
-46 47 0
-26 47 0
-47 46 26 0
-9 -48 0
9 48 0
-48 49 0
-25 49 0
-49 48 25 0
-49 -50 0
49 50 0
-51 -41 0
-51 -47 0
41 47 51 0
-52 -38 0
-52 -41 0
-52 -45 0
38 41 45 52 0
-53 -35 0
-53 -38 0
-53 -41 0
-53 -43 0
35 38 41 43 53 0
-50 54 0
-51 54 0
-52 54 0
-53 54 0
-54 50 51 52 53 0
-55 -12 0
-55 28 0
12 -28 55 0
-56 12 0
-56 -28 0
-12 28 56 0
-55 57 0
-56 57 0
-57 55 56 0
-58 -57 0
-58 -35 0
-58 -38 0
-58 -41 0
57 35 38 41 58 0
-59 -54 0
-59 -58 0
54 58 59 0
-60 -54 0
-60 59 0
54 -59 60 0
-61 54 0
-61 -59 0
-54 59 61 0
-60 62 0
-61 62 0
-62 60 61 0
-63 -7 0
-63 23 0
7 -23 63 0
-64 7 0
-64 -23 0
-7 23 64 0
-63 65 0
-64 65 0
-65 63 64 0
-66 -6 0
-66 22 0
6 -22 66 0
-67 6 0
-67 -22 0
-6 22 67 0
-66 68 0
-67 68 0
-68 66 67 0
-69 -5 0
-69 21 0
5 -21 69 0
-70 5 0
-70 -21 0
-5 21 70 0
-69 71 0
-70 71 0
-71 69 70 0
-8 -72 0
8 72 0
-72 73 0
-24 73 0
-73 72 24 0
-7 -74 0
7 74 0
-74 75 0
-23 75 0
-75 74 23 0
-6 -76 0
6 76 0
-76 77 0
-22 77 0
-77 76 22 0
-5 -78 0
5 78 0
-78 79 0
-21 79 0
-79 78 21 0
-79 -80 0
79 80 0
-81 -71 0
-81 -77 0
71 77 81 0
-82 -68 0
-82 -71 0
-82 -75 0
68 71 75 82 0
-83 -65 0
-83 -68 0
-83 -71 0
-83 -73 0
65 68 71 73 83 0
-80 84 0
-81 84 0
-82 84 0
-83 84 0
-84 80 81 82 83 0
-85 -8 0
-85 24 0
8 -24 85 0
-86 8 0
-86 -24 0
-8 24 86 0
-85 87 0
-86 87 0
-87 85 86 0
-88 -87 0
-88 -65 0
-88 -68 0
-88 -71 0
87 65 68 71 88 0
-89 -84 0
-89 -88 0
84 88 89 0
-90 -84 0
-90 89 0
84 -89 90 0
-91 84 0
-91 -89 0
-84 89 91 0
-90 92 0
-91 92 0
-92 90 91 0
-93 -3 0
-93 19 0
3 -19 93 0
-94 3 0
-94 -19 0
-3 19 94 0
-93 95 0
-94 95 0
-95 93 94 0
-96 -2 0
-96 18 0
2 -18 96 0
-97 2 0
-97 -18 0
-2 18 97 0
-96 98 0
-97 98 0
-98 96 97 0
-99 -1 0
-99 17 0
1 -17 99 0
-100 1 0
-100 -17 0
-1 17 100 0
-99 101 0
-100 101 0
-101 99 100 0
-4 -102 0
4 102 0
-102 103 0
-20 103 0
-103 102 20 0
-3 -104 0
3 104 0
-104 105 0
-19 105 0
-105 104 19 0
-2 -106 0
2 106 0
-106 107 0
-18 107 0
-107 106 18 0
-1 -108 0
1 108 0
-108 109 0
-17 109 0
-109 108 17 0
-109 -110 0
109 110 0
-111 -101 0
-111 -107 0
101 107 111 0
-112 -98 0
-112 -101 0
-112 -105 0
98 101 105 112 0
-113 -95 0
-113 -98 0
-113 -101 0
-113 -103 0
95 98 101 103 113 0
-110 114 0
-111 114 0
-112 114 0
-113 114 0
-114 110 111 112 113 0
-115 -4 0
-115 20 0
4 -20 115 0
-116 4 0
-116 -20 0
-4 20 116 0
-115 117 0
-116 117 0
-117 115 116 0
-118 -117 0
-118 -95 0
-118 -98 0
-118 -101 0
117 95 98 101 118 0
-119 -114 0
-119 -118 0
114 118 119 0
-120 -114 0
-120 119 0
114 -119 120 0
-121 114 0
-121 -119 0
-114 119 121 0
-120 122 0
-121 122 0
-122 120 121 0
-123 -15 0
-123 31 0
15 -31 123 0
-124 15 0
-124 -31 0
-15 31 124 0
-123 125 0
-124 125 0
-125 123 124 0
-126 -14 0
-126 30 0
14 -30 126 0
-127 14 0
-127 -30 0
-14 30 127 0
-126 128 0
-127 128 0
-128 126 127 0
-129 -13 0
-129 29 0
13 -29 129 0
-130 13 0
-130 -29 0
-13 29 130 0
-129 131 0
-130 131 0
-131 129 130 0
-16 -132 0
16 132 0
-132 133 0
-32 133 0
-133 132 32 0
-15 -134 0
15 134 0
-134 135 0
-31 135 0
-135 134 31 0
-14 -136 0
14 136 0
-136 137 0
-30 137 0
-137 136 30 0
-13 -138 0
13 138 0
-138 139 0
-29 139 0
-139 138 29 0
-139 -140 0
139 140 0
-141 -131 0
-141 -137 0
131 137 141 0
-142 -128 0
-142 -131 0
-142 -135 0
128 131 135 142 0
-143 -125 0
-143 -128 0
-143 -131 0
-143 -133 0
125 128 131 133 143 0
-140 144 0
-141 144 0
-142 144 0
-143 144 0
-144 140 141 142 143 0
-145 -16 0
-145 32 0
16 -32 145 0
-146 16 0
-146 -32 0
-16 32 146 0
-145 147 0
-146 147 0
-147 145 146 0
-148 -147 0
-148 -125 0
-148 -128 0
-148 -131 0
147 125 128 131 148 0
-149 -144 0
-149 -148 0
144 148 149 0
-144 -150 0
144 150 0
-150 151 0
-149 151 0
-151 150 149 0
-54 -152 0
54 152 0
-152 153 0
-59 153 0
-153 152 59 0
-84 -154 0
84 154 0
-154 155 0
-89 155 0
-155 154 89 0
-114 -156 0
114 156 0
-156 157 0
-119 157 0
-157 156 119 0
-157 -158 0
157 158 0
-159 -122 0
-159 -155 0
122 155 159 0
-160 -92 0
-160 -122 0
-160 -153 0
92 122 153 160 0
-161 -62 0
-161 -92 0
-161 -122 0
-161 -151 0
62 92 122 151 161 0
-158 162 0
-159 162 0
-160 162 0
-161 162 0
-162 158 159 160 161 0
-163 -144 0
-163 149 0
144 -149 163 0
-164 144 0
-164 -149 0
-144 149 164 0
-163 165 0
-164 165 0
-165 163 164 0
-166 -165 0
-166 -62 0
-166 -92 0
-166 -122 0
165 62 92 122 166 0
-167 -162 0
-167 -166 0
162 166 167 0
-203 -169 0
-203 168 0
169 -168 203 0
-204 169 0
-204 -168 0
-169 168 204 0
-203 205 0
-204 205 0
-205 203 204 0
-206 -7 0
-206 23 0
7 -23 206 0
-207 7 0
-207 -23 0
-7 23 207 0
-206 208 0
-207 208 0
-208 206 207 0
-209 -6 0
-209 22 0
6 -22 209 0
-210 6 0
-210 -22 0
-6 22 210 0
-209 211 0
-210 211 0
-211 209 210 0
-212 -5 0
-212 21 0
5 -21 212 0
-213 5 0
-213 -21 0
-5 21 213 0
-212 214 0
-213 214 0
-214 212 213 0
-8 -215 0
8 215 0
-215 216 0
-24 216 0
-216 215 24 0
-7 -217 0
7 217 0
-217 218 0
-23 218 0
-218 217 23 0
-6 -219 0
6 219 0
-219 220 0
-22 220 0
-220 219 22 0
-5 -221 0
5 221 0
-221 222 0
-21 222 0
-222 221 21 0
-222 -223 0
222 223 0
-224 -214 0
-224 -220 0
214 220 224 0
-225 -211 0
-225 -214 0
-225 -218 0
211 214 218 225 0
-226 -208 0
-226 -211 0
-226 -214 0
-226 -216 0
208 211 214 216 226 0
-223 227 0
-224 227 0
-225 227 0
-226 227 0
-227 223 224 225 226 0
-228 -8 0
-228 24 0
8 -24 228 0
-229 8 0
-229 -24 0
-8 24 229 0
-228 230 0
-229 230 0
-230 228 229 0
-231 -230 0
-231 -208 0
-231 -211 0
-231 -214 0
230 208 211 214 231 0
-232 -227 0
-232 -231 0
227 231 232 0
-233 -227 0
-233 232 0
227 -232 233 0
-234 227 0
-234 -232 0
-227 232 234 0
-233 235 0
-234 235 0
-235 233 234 0
-236 -2 0
-236 18 0
2 -18 236 0
-237 2 0
-237 -18 0
-2 18 237 0
-236 238 0
-237 238 0
-238 236 237 0
-239 -1 0
-239 17 0
1 -17 239 0
-240 1 0
-240 -17 0
-1 17 240 0
-239 241 0
-240 241 0
-241 239 240 0
-3 -242 0
3 242 0
-242 243 0
-19 243 0
-243 242 19 0
-2 -244 0
2 244 0
-244 245 0
-18 245 0
-245 244 18 0
-1 -246 0
1 246 0
-246 247 0
-17 247 0
-247 246 17 0
-247 -248 0
247 248 0
-249 -241 0
-249 -245 0
241 245 249 0
-250 -238 0
-250 -241 0
-250 -243 0
238 241 243 250 0
-251 -171 0
-251 -238 0
-251 -241 0
-251 -172 0
171 238 241 172 251 0
-248 252 0
-249 252 0
-250 252 0
-251 252 0
-252 248 249 250 251 0
-253 -4 0
-253 20 0
4 -20 253 0
-254 4 0
-254 -20 0
-4 20 254 0
-253 255 0
-254 255 0
-255 253 254 0
-256 -255 0
-256 -171 0
-256 -238 0
-256 -241 0
255 171 238 241 256 0
-257 -252 0
-257 -256 0
252 256 257 0
-258 -252 0
-258 257 0
252 -257 258 0
-259 252 0
-259 -257 0
-252 257 259 0
-258 260 0
-259 260 0
-260 258 259 0
-174 -261 0
174 261 0
-261 262 0
-175 262 0
-262 261 175 0
-169 -263 0
169 263 0
-263 264 0
-168 264 0
-264 263 168 0
-227 265 0
-232 265 0
-265 227 232 0
-252 -266 0
252 266 0
-266 267 0
-257 267 0
-267 266 257 0
-267 -268 0
267 268 0
-269 -260 0
-269 -265 0
260 265 269 0
-270 -235 0
-270 -260 0
-270 -264 0
235 260 264 270 0
-271 -205 0
-271 -235 0
-271 -260 0
-271 -262 0
205 235 260 262 271 0
-268 272 0
-269 272 0
-270 272 0
-271 272 0
-272 268 269 270 271 0
-273 -173 0
-273 -205 0
-273 -235 0
-273 -260 0
173 205 235 260 273 0
-274 -272 0
-274 -273 0
272 273 274 0
-275 -9 0
-275 25 0
9 -25 275 0
-276 9 0
-276 -25 0
-9 25 276 0
-275 277 0
-276 277 0
-277 275 276 0
-278 -15 0
-278 31 0
15 -31 278 0
-279 15 0
-279 -31 0
-15 31 279 0
-278 280 0
-279 280 0
-280 278 279 0
-281 -14 0
-281 30 0
14 -30 281 0
-282 14 0
-282 -30 0
-14 30 282 0
-281 283 0
-282 283 0
-283 281 282 0
-284 -13 0
-284 29 0
13 -29 284 0
-285 13 0
-285 -29 0
-13 29 285 0
-284 286 0
-285 286 0
-286 284 285 0
-287 -167 274 0
-287 167 -274 0
287 -167 -274 0
287 167 274 0
-288 -166 273 0
-288 166 -273 0
288 -166 -273 0
288 166 273 0
-289 -162 272 0
-289 162 -272 0
289 -162 -272 0
289 162 272 0
-287 -288 -289 290 0
-290 287 0
-290 288 0
-290 289 0
-3 -176 -291 0
-3 176 291 0
3 -176 291 0
3 176 -291 0
-19 -177 -292 0
-19 177 292 0
19 -177 292 0
19 177 -292 0
-4 -178 -293 0
-4 178 293 0
4 -178 293 0
4 178 -293 0
-20 -179 -294 0
-20 179 294 0
20 -179 294 0
20 179 -294 0
-10 -180 -295 0
-10 180 295 0
10 -180 295 0
10 180 -295 0
-26 -181 -296 0
-26 181 296 0
26 -181 296 0
26 181 -296 0
-11 -182 -297 0
-11 182 297 0
11 -182 297 0
11 182 -297 0
-27 -183 -298 0
-27 183 298 0
27 -183 298 0
27 183 -298 0
-170 -184 -299 0
-170 184 299 0
170 -184 299 0
170 184 -299 0
-277 -185 -300 0
-277 185 300 0
277 -185 300 0
277 185 -300 0
-12 -186 -301 0
-12 186 301 0
12 -186 301 0
12 186 -301 0
-28 -187 -302 0
-28 187 302 0
28 -187 302 0
28 187 -302 0
-10 -188 -303 0
-10 188 303 0
10 -188 303 0
10 188 -303 0
-26 -189 -304 0
-26 189 304 0
26 -189 304 0
26 189 -304 0
-9 -190 -305 0
-9 190 305 0
9 -190 305 0
9 190 -305 0
-25 -191 -306 0
-25 191 306 0
25 -191 306 0
25 191 -306 0
-280 -192 -307 0
-280 192 307 0
280 -192 307 0
280 192 -307 0
-283 -193 -308 0
-283 193 308 0
283 -193 308 0
283 193 -308 0
-286 -194 -309 0
-286 194 309 0
286 -194 309 0
286 194 -309 0
-16 -195 -310 0
-16 195 310 0
16 -195 310 0
16 195 -310 0
-32 -196 -311 0
-32 196 311 0
32 -196 311 0
32 196 -311 0
-15 -197 -312 0
-15 197 312 0
15 -197 312 0
15 197 -312 0
-31 -198 -313 0
-31 198 313 0
31 -198 313 0
31 198 -313 0
-14 -199 -314 0
-14 199 314 0
14 -199 314 0
14 199 -314 0
-30 -200 -315 0
-30 200 315 0
30 -200 315 0
30 200 -315 0
-13 -201 -316 0
-13 201 316 0
13 -201 316 0
13 201 -316 0
-29 -202 -317 0
-29 202 317 0
29 -202 317 0
29 202 -317 0
291 292 293 294 295 296 297 298 299 300 301 302 303 304 305 306 307 308 309 310 311 312 313 314 315 316 317 290 0
-11 -1119 0
27 -1119 0
11 -27 1119 0
11 -1120 0
-27 -1120 0
-11 27 1120 0
-33 -1121 0
-34 -1121 0
33 34 1121 0
-10 -1122 0
26 -1122 0
10 -26 1122 0
10 -1123 0
-26 -1123 0
-10 26 1123 0
-36 -1124 0
-37 -1124 0
36 37 1124 0
-9 -1125 0
25 -1125 0
9 -25 1125 0
9 -1126 0
-25 -1126 0
-9 25 1126 0
-39 -1127 0
-40 -1127 0
39 40 1127 0
-28 -1128 0
-42 -1128 0
28 42 1128 0
-27 -1129 0
-44 -1129 0
27 44 1129 0
-26 -1130 0
-46 -1130 0
26 46 1130 0
-25 -1131 0
-48 -1131 0
25 48 1131 0
-41 -1132 0
-47 -1132 0
41 47 1132 0
-38 -1133 0
-41 -1133 0
38 41 1133 0
-45 -1134 0
1133 -1134 0
45 -1133 1134 0
-35 -1135 0
1133 -1135 0
35 -1133 1135 0
-43 -1136 0
1135 -1136 0
43 -1135 1136 0
-50 -1137 0
-51 -1137 0
50 51 1137 0
-52 -1138 0
-53 -1138 0
52 53 1138 0
1137 -1139 0
1138 -1139 0
-1137 -1138 1139 0
-12 -1140 0
28 -1140 0
12 -28 1140 0
12 -1141 0
-28 -1141 0
-12 28 1141 0
-55 -1142 0
-56 -1142 0
55 56 1142 0
-57 -1143 0
1135 -1143 0
57 -1135 1143 0
-54 -1144 0
-58 -1144 0
54 58 1144 0
-54 -1145 0
59 -1145 0
54 -59 1145 0
54 -1146 0
-59 -1146 0
-54 59 1146 0
-60 -1147 0
-61 -1147 0
60 61 1147 0
-7 -1148 0
23 -1148 0
7 -23 1148 0
7 -1149 0
-23 -1149 0
-7 23 1149 0
-63 -1150 0
-64 -1150 0
63 64 1150 0
-6 -1151 0
22 -1151 0
6 -22 1151 0
6 -1152 0
-22 -1152 0
-6 22 1152 0
-66 -1153 0
-67 -1153 0
66 67 1153 0
-5 -1154 0
21 -1154 0
5 -21 1154 0
5 -1155 0
-21 -1155 0
-5 21 1155 0
-69 -1156 0
-70 -1156 0
69 70 1156 0
-24 -1157 0
-72 -1157 0
24 72 1157 0
-23 -1158 0
-74 -1158 0
23 74 1158 0
-22 -1159 0
-76 -1159 0
22 76 1159 0
-21 -1160 0
-78 -1160 0
21 78 1160 0
-71 -1161 0
-77 -1161 0
71 77 1161 0
-68 -1162 0
-71 -1162 0
68 71 1162 0
-75 -1163 0
1162 -1163 0
75 -1162 1163 0
-65 -1164 0
1162 -1164 0
65 -1162 1164 0
-73 -1165 0
1164 -1165 0
73 -1164 1165 0
-80 -1166 0
-81 -1166 0
80 81 1166 0
-82 -1167 0
-83 -1167 0
82 83 1167 0
1166 -1168 0
1167 -1168 0
-1166 -1167 1168 0
-8 -1169 0
24 -1169 0
8 -24 1169 0
8 -1170 0
-24 -1170 0
-8 24 1170 0
-85 -1171 0
-86 -1171 0
85 86 1171 0
-87 -1172 0
1164 -1172 0
87 -1164 1172 0
-84 -1173 0
-88 -1173 0
84 88 1173 0
-84 -1174 0
89 -1174 0
84 -89 1174 0
84 -1175 0
-89 -1175 0
-84 89 1175 0
-90 -1176 0
-91 -1176 0
90 91 1176 0
-3 -1177 0
19 -1177 0
3 -19 1177 0
3 -1178 0
-19 -1178 0
-3 19 1178 0
-93 -1179 0
-94 -1179 0
93 94 1179 0
-2 -1180 0
18 -1180 0
2 -18 1180 0
2 -1181 0
-18 -1181 0
-2 18 1181 0
-96 -1182 0
-97 -1182 0
96 97 1182 0
-1 -1183 0
17 -1183 0
1 -17 1183 0
1 -1184 0
-17 -1184 0
-1 17 1184 0
-99 -1185 0
-100 -1185 0
99 100 1185 0
-20 -1186 0
-102 -1186 0
20 102 1186 0
-19 -1187 0
-104 -1187 0
19 104 1187 0
-18 -1188 0
-106 -1188 0
18 106 1188 0
-17 -1189 0
-108 -1189 0
17 108 1189 0
-101 -1190 0
-107 -1190 0
101 107 1190 0
-98 -1191 0
-101 -1191 0
98 101 1191 0
-105 -1192 0
1191 -1192 0
105 -1191 1192 0
-95 -1193 0
1191 -1193 0
95 -1191 1193 0
-103 -1194 0
1193 -1194 0
103 -1193 1194 0
-110 -1195 0
-111 -1195 0
110 111 1195 0
-112 -1196 0
-113 -1196 0
112 113 1196 0
1195 -1197 0
1196 -1197 0
-1195 -1196 1197 0
-4 -1198 0
20 -1198 0
4 -20 1198 0
4 -1199 0
-20 -1199 0
-4 20 1199 0
-115 -1200 0
-116 -1200 0
115 116 1200 0
-117 -1201 0
1193 -1201 0
117 -1193 1201 0
-114 -1202 0
-118 -1202 0
114 118 1202 0
-114 -1203 0
119 -1203 0
114 -119 1203 0
114 -1204 0
-119 -1204 0
-114 119 1204 0
-120 -1205 0
-121 -1205 0
120 121 1205 0
-15 -1206 0
31 -1206 0
15 -31 1206 0
15 -1207 0
-31 -1207 0
-15 31 1207 0
-123 -1208 0
-124 -1208 0
123 124 1208 0
-14 -1209 0
30 -1209 0
14 -30 1209 0
14 -1210 0
-30 -1210 0
-14 30 1210 0
-126 -1211 0
-127 -1211 0
126 127 1211 0
-13 -1212 0
29 -1212 0
13 -29 1212 0
13 -1213 0
-29 -1213 0
-13 29 1213 0
-129 -1214 0
-130 -1214 0
129 130 1214 0
-32 -1215 0
-132 -1215 0
32 132 1215 0
-31 -1216 0
-134 -1216 0
31 134 1216 0
-30 -1217 0
-136 -1217 0
30 136 1217 0
-29 -1218 0
-138 -1218 0
29 138 1218 0
-131 -1219 0
-137 -1219 0
131 137 1219 0
-128 -1220 0
-131 -1220 0
128 131 1220 0
-135 -1221 0
1220 -1221 0
135 -1220 1221 0
-125 -1222 0
1220 -1222 0
125 -1220 1222 0
-133 -1223 0
1222 -1223 0
133 -1222 1223 0
-140 -1224 0
-141 -1224 0
140 141 1224 0
-142 -1225 0
-143 -1225 0
142 143 1225 0
1224 -1226 0
1225 -1226 0
-1224 -1225 1226 0
-16 -1227 0
32 -1227 0
16 -32 1227 0
16 -1228 0
-32 -1228 0
-16 32 1228 0
-145 -1229 0
-146 -1229 0
145 146 1229 0
-147 -1230 0
1222 -1230 0
147 -1222 1230 0
-144 -1231 0
-148 -1231 0
144 148 1231 0
-149 -1232 0
-150 -1232 0
149 150 1232 0
-59 -1233 0
-152 -1233 0
59 152 1233 0
-89 -1234 0
-154 -1234 0
89 154 1234 0
-119 -1235 0
-156 -1235 0
119 156 1235 0
-122 -1236 0
-155 -1236 0
122 155 1236 0
-92 -1237 0
-122 -1237 0
92 122 1237 0
-153 -1238 0
1237 -1238 0
153 -1237 1238 0
-62 -1239 0
1237 -1239 0
62 -1237 1239 0
-151 -1240 0
1239 -1240 0
151 -1239 1240 0
-158 -1241 0
-159 -1241 0
158 159 1241 0
-160 -1242 0
-161 -1242 0
160 161 1242 0
1241 -1243 0
1242 -1243 0
-1241 -1242 1243 0
-144 -1244 0
149 -1244 0
144 -149 1244 0
144 -1245 0
-149 -1245 0
-144 149 1245 0
-163 -1246 0
-164 -1246 0
163 164 1246 0
-165 -1247 0
1239 -1247 0
165 -1239 1247 0
-162 -1248 0
-166 -1248 0
162 166 1248 0
-203 -1249 0
-204 -1249 0
203 204 1249 0
-206 -1250 0
-207 -1250 0
206 207 1250 0
-209 -1251 0
-210 -1251 0
209 210 1251 0
-212 -1252 0
-213 -1252 0
212 213 1252 0
-24 -1253 0
-215 -1253 0
24 215 1253 0
-23 -1254 0
-217 -1254 0
23 217 1254 0
-22 -1255 0
-219 -1255 0
22 219 1255 0
-21 -1256 0
-221 -1256 0
21 221 1256 0
-214 -1257 0
-220 -1257 0
214 220 1257 0
-211 -1258 0
-214 -1258 0
211 214 1258 0
-218 -1259 0
1258 -1259 0
218 -1258 1259 0
-208 -1260 0
1258 -1260 0
208 -1258 1260 0
-216 -1261 0
1260 -1261 0
216 -1260 1261 0
-223 -1262 0
-224 -1262 0
223 224 1262 0
-225 -1263 0
-226 -1263 0
225 226 1263 0
1262 -1264 0
1263 -1264 0
-1262 -1263 1264 0
-228 -1265 0
-229 -1265 0
228 229 1265 0
-230 -1266 0
1260 -1266 0
230 -1260 1266 0
-227 -1267 0
-231 -1267 0
227 231 1267 0
-227 -1268 0
232 -1268 0
227 -232 1268 0
227 -1269 0
-232 -1269 0
-227 232 1269 0
-233 -1270 0
-234 -1270 0
233 234 1270 0
-236 -1271 0
-237 -1271 0
236 237 1271 0
-239 -1272 0
-240 -1272 0
239 240 1272 0
-19 -1273 0
-242 -1273 0
19 242 1273 0
-18 -1274 0
-244 -1274 0
18 244 1274 0
-17 -1275 0
-246 -1275 0
17 246 1275 0
-241 -1276 0
-245 -1276 0
241 245 1276 0
-238 -1277 0
-241 -1277 0
238 241 1277 0
-243 -1278 0
1277 -1278 0
243 -1277 1278 0
-248 -1279 0
-249 -1279 0
248 249 1279 0
-250 -1280 0
-251 -1280 0
250 251 1280 0
1279 -1281 0
1280 -1281 0
-1279 -1280 1281 0
-253 -1282 0
-254 -1282 0
253 254 1282 0
-252 -1283 0
-256 -1283 0
252 256 1283 0
-252 -1284 0
257 -1284 0
252 -257 1284 0
252 -1285 0
-257 -1285 0
-252 257 1285 0
-258 -1286 0
-259 -1286 0
258 259 1286 0
204 -1287 0
-263 -1287 0
-204 263 1287 0
-227 -1288 0
-232 -1288 0
227 232 1288 0
-257 -1289 0
-266 -1289 0
257 266 1289 0
-260 -1290 0
-265 -1290 0
260 265 1290 0
-235 -1291 0
-260 -1291 0
235 260 1291 0
-264 -1292 0
1291 -1292 0
264 -1291 1292 0
-205 -1293 0
-262 -1293 0
205 262 1293 0
1291 -1294 0
1293 -1294 0
-1291 -1293 1294 0
-268 -1295 0
-269 -1295 0
268 269 1295 0
-270 -1296 0
-271 -1296 0
270 271 1296 0
1295 -1297 0
1296 -1297 0
-1295 -1296 1297 0
-272 -1298 0
-273 -1298 0
272 273 1298 0
-275 -1299 0
-276 -1299 0
275 276 1299 0
-278 -1300 0
-279 -1300 0
278 279 1300 0
-281 -1301 0
-282 -1301 0
281 282 1301 0
-284 -1302 0
-285 -1302 0
284 285 1302 0
167 -1303 0
-274 -1303 0
-167 274 1303 0
-167 -1304 0
274 -1304 0
167 -274 1304 0
-1303 -1305 0
-1304 -1305 0
1303 1304 1305 0
166 -1306 0
-273 -1306 0
-166 273 1306 0
-166 -1307 0
273 -1307 0
166 -273 1307 0
-1306 -1308 0
-1307 -1308 0
1306 1307 1308 0
162 -1309 0
-272 -1309 0
-162 272 1309 0
-162 -1310 0
272 -1310 0
162 -272 1310 0
-1309 -1311 0
-1310 -1311 0
1309 1310 1311 0
287 -1312 0
288 -1312 0
-287 -288 1312 0
289 -1313 0
1312 -1313 0
-289 -1312 1313 0
-3 -1314 0
-176 -1314 0
3 176 1314 0
3 -1315 0
176 -1315 0
-3 -176 1315 0
-1314 -1316 0
-1315 -1316 0
1314 1315 1316 0
-19 -1317 0
-177 -1317 0
19 177 1317 0
19 -1318 0
177 -1318 0
-19 -177 1318 0
-1317 -1319 0
-1318 -1319 0
1317 1318 1319 0
-4 -1320 0
-178 -1320 0
4 178 1320 0
4 -1321 0
178 -1321 0
-4 -178 1321 0
-1320 -1322 0
-1321 -1322 0
1320 1321 1322 0
-20 -1323 0
-179 -1323 0
20 179 1323 0
20 -1324 0
179 -1324 0
-20 -179 1324 0
-1323 -1325 0
-1324 -1325 0
1323 1324 1325 0
-10 -1326 0
-180 -1326 0
10 180 1326 0
10 -1327 0
180 -1327 0
-10 -180 1327 0
-1326 -1328 0
-1327 -1328 0
1326 1327 1328 0
-26 -1329 0
-181 -1329 0
26 181 1329 0
26 -1330 0
181 -1330 0
-26 -181 1330 0
-1329 -1331 0
-1330 -1331 0
1329 1330 1331 0
-11 -1332 0
-182 -1332 0
11 182 1332 0
11 -1333 0
182 -1333 0
-11 -182 1333 0
-1332 -1334 0
-1333 -1334 0
1332 1333 1334 0
-27 -1335 0
-183 -1335 0
27 183 1335 0
27 -1336 0
183 -1336 0
-27 -183 1336 0
-1335 -1337 0
-1336 -1337 0
1335 1336 1337 0
185 -1338 0
-277 -1338 0
-185 277 1338 0
-185 -1339 0
277 -1339 0
185 -277 1339 0
-1299 -1340 0
1339 -1340 0
1299 -1339 1340 0
-1338 -1341 0
-1340 -1341 0
1338 1340 1341 0
-12 -1342 0
-186 -1342 0
12 186 1342 0
12 -1343 0
186 -1343 0
-12 -186 1343 0
-1342 -1344 0
-1343 -1344 0
1342 1343 1344 0
-28 -1345 0
-187 -1345 0
28 187 1345 0
28 -1346 0
187 -1346 0
-28 -187 1346 0
-1345 -1347 0
-1346 -1347 0
1345 1346 1347 0
-10 -1348 0
-188 -1348 0
10 188 1348 0
10 -1349 0
188 -1349 0
-10 -188 1349 0
-1348 -1350 0
-1349 -1350 0
1348 1349 1350 0
-26 -1351 0
-189 -1351 0
26 189 1351 0
26 -1352 0
189 -1352 0
-26 -189 1352 0
-1351 -1353 0
-1352 -1353 0
1351 1352 1353 0
-9 -1354 0
-190 -1354 0
9 190 1354 0
9 -1355 0
190 -1355 0
-9 -190 1355 0
-1354 -1356 0
-1355 -1356 0
1354 1355 1356 0
-25 -1357 0
-191 -1357 0
25 191 1357 0
25 -1358 0
191 -1358 0
-25 -191 1358 0
-1357 -1359 0
-1358 -1359 0
1357 1358 1359 0
-192 -1360 0
-280 -1360 0
192 280 1360 0
192 -1361 0
280 -1361 0
-192 -280 1361 0
-1360 -1362 0
-1361 -1362 0
1360 1361 1362 0
-193 -1363 0
-283 -1363 0
193 283 1363 0
193 -1364 0
283 -1364 0
-193 -283 1364 0
-1363 -1365 0
-1364 -1365 0
1363 1364 1365 0
-194 -1366 0
-286 -1366 0
194 286 1366 0
194 -1367 0
286 -1367 0
-194 -286 1367 0
-1366 -1368 0
-1367 -1368 0
1366 1367 1368 0
-16 -1369 0
-195 -1369 0
16 195 1369 0
16 -1370 0
195 -1370 0
-16 -195 1370 0
-1369 -1371 0
-1370 -1371 0
1369 1370 1371 0
-32 -1372 0
-196 -1372 0
32 196 1372 0
32 -1373 0
196 -1373 0
-32 -196 1373 0
-1372 -1374 0
-1373 -1374 0
1372 1373 1374 0
-15 -1375 0
-197 -1375 0
15 197 1375 0
15 -1376 0
197 -1376 0
-15 -197 1376 0
-1375 -1377 0
-1376 -1377 0
1375 1376 1377 0
-31 -1378 0
-198 -1378 0
31 198 1378 0
31 -1379 0
198 -1379 0
-31 -198 1379 0
-1378 -1380 0
-1379 -1380 0
1378 1379 1380 0
-14 -1381 0
-199 -1381 0
14 199 1381 0
14 -1382 0
199 -1382 0
-14 -199 1382 0
-1381 -1383 0
-1382 -1383 0
1381 1382 1383 0
-30 -1384 0
-200 -1384 0
30 200 1384 0
30 -1385 0
200 -1385 0
-30 -200 1385 0
-1384 -1386 0
-1385 -1386 0
1384 1385 1386 0
-13 -1387 0
-201 -1387 0
13 201 1387 0
13 -1388 0
201 -1388 0
-13 -201 1388 0
-1387 -1389 0
-1388 -1389 0
1387 1388 1389 0
-29 -1390 0
-202 -1390 0
29 202 1390 0
29 -1391 0
202 -1391 0
-29 -202 1391 0
-1390 -1392 0
-1391 -1392 0
1390 1391 1392 0
